sat
(
  (define-fun C2_VM2 () Int
    1)
  (define-fun PriceProv6 () Int
    210)
  (define-fun C1_VM3 () Int
    0)
  (define-fun ProcProv4 () Int
    7)
  (define-fun C5_VM4 () Int
    0)
  (define-fun C3_VM1 () Int
    1)
  (define-fun C5_VM1 () Int
    1)
  (define-fun C1_VM6 () Int
    1)
  (define-fun ProcProv6 () Int
    4)
  (define-fun C2_VM4 () Int
    0)
  (define-fun C1_VM2 () Int
    0)
  (define-fun PriceProv3 () Int
    532)
  (define-fun C5_VM2 () Int
    1)
  (define-fun StorageProv3 () Int
    2000)
  (define-fun StorageProv4 () Int
    2000)
  (define-fun C3_VM6 () Int
    0)
  (define-fun PriceProv1 () Int
    460)
  (define-fun StorageProv5 () Int
    2000)
  (define-fun C5_VM6 () Int
    0)
  (define-fun ProcProv5 () Int
    4)
  (define-fun VM2Type () Int
    182)
  (define-fun PriceProv5 () Int
    210)
  (define-fun MemProv6 () Int
    7500)
  (define-fun MemProv3 () Int
    30000)
  (define-fun C5_VM3 () Int
    0)
  (define-fun VM4Type () Int
    0)
  (define-fun StorageProv1 () Int
    2000)
  (define-fun ProcProv3 () Int
    8)
  (define-fun C2_VM6 () Int
    0)
  (define-fun C3_VM5 () Int
    0)
  (define-fun C3_VM2 () Int
    0)
  (define-fun VM3Type () Int
    134)
  (define-fun StorageProv6 () Int
    2000)
  (define-fun C5_VM5 () Int
    1)
  (define-fun C2_VM1 () Int
    0)
  (define-fun VM6Type () Int
    182)
  (define-fun MemProv5 () Int
    7500)
  (define-fun MemProv4 () Int
    61000)
  (define-fun MemProv2 () Int
    7500)
  (define-fun C3_VM4 () Int
    0)
  (define-fun ProcProv2 () Int
    4)
  (define-fun C1_VM5 () Int
    0)
  (define-fun C4_VM4 () Int
    0)
  (define-fun C4_VM1 () Int
    0)
  (define-fun C4_VM6 () Int
    0)
  (define-fun ProcProv1 () Int
    8)
  (define-fun C2_VM3 () Int
    0)
  (define-fun C2_VM5 () Int
    1)
  (define-fun C4_VM3 () Int
    1)
  (define-fun C4_VM5 () Int
    0)
  (define-fun VM1Type () Int
    136)
  (define-fun MemProv1 () Int
    15000)
  (define-fun PriceProv4 () Int
    0)
  (define-fun C1_VM4 () Int
    0)
  (define-fun C3_VM3 () Int
    0)
  (define-fun StorageProv2 () Int
    2000)
  (define-fun VM5Type () Int
    182)
  (define-fun PriceProv2 () Int
    210)
  (define-fun C4_VM2 () Int
    0)
  (define-fun C1_VM1 () Int
    0)
)
(
  (define-fun C2_VM2 () Int
    1)
  (define-fun PriceProv6 () Int
    210)
  (define-fun C1_VM3 () Int
    0)
  (define-fun ProcProv4 () Int
    7)
  (define-fun C5_VM4 () Int
    0)
  (define-fun C3_VM1 () Int
    1)
  (define-fun C5_VM1 () Int
    1)
  (define-fun C1_VM6 () Int
    1)
  (define-fun ProcProv6 () Int
    4)
  (define-fun C2_VM4 () Int
    0)
  (define-fun C1_VM2 () Int
    0)
  (define-fun PriceProv3 () Int
    532)
  (define-fun C5_VM2 () Int
    1)
  (define-fun StorageProv3 () Int
    2000)
  (define-fun StorageProv4 () Int
    2000)
  (define-fun C3_VM6 () Int
    0)
  (define-fun PriceProv1 () Int
    460)
  (define-fun StorageProv5 () Int
    2000)
  (define-fun C5_VM6 () Int
    0)
  (define-fun ProcProv5 () Int
    4)
  (define-fun VM2Type () Int
    182)
  (define-fun PriceProv5 () Int
    210)
  (define-fun MemProv6 () Int
    7500)
  (define-fun MemProv3 () Int
    30000)
  (define-fun C5_VM3 () Int
    0)
  (define-fun VM4Type () Int
    0)
  (define-fun StorageProv1 () Int
    2000)
  (define-fun ProcProv3 () Int
    8)
  (define-fun C2_VM6 () Int
    0)
  (define-fun C3_VM5 () Int
    0)
  (define-fun C3_VM2 () Int
    0)
  (define-fun VM3Type () Int
    134)
  (define-fun StorageProv6 () Int
    2000)
  (define-fun C5_VM5 () Int
    1)
  (define-fun C2_VM1 () Int
    0)
  (define-fun VM6Type () Int
    182)
  (define-fun MemProv5 () Int
    7500)
  (define-fun MemProv4 () Int
    61000)
  (define-fun MemProv2 () Int
    7500)
  (define-fun C3_VM4 () Int
    0)
  (define-fun ProcProv2 () Int
    4)
  (define-fun C1_VM5 () Int
    0)
  (define-fun C4_VM4 () Int
    0)
  (define-fun C4_VM1 () Int
    0)
  (define-fun C4_VM6 () Int
    0)
  (define-fun ProcProv1 () Int
    8)
  (define-fun C2_VM3 () Int
    0)
  (define-fun C2_VM5 () Int
    1)
  (define-fun C4_VM3 () Int
    1)
  (define-fun C4_VM5 () Int
    0)
  (define-fun VM1Type () Int
    136)
  (define-fun MemProv1 () Int
    15000)
  (define-fun PriceProv4 () Int
    0)
  (define-fun C1_VM4 () Int
    0)
  (define-fun C3_VM3 () Int
    0)
  (define-fun StorageProv2 () Int
    2000)
  (define-fun VM5Type () Int
    182)
  (define-fun PriceProv2 () Int
    210)
  (define-fun C4_VM2 () Int
    0)
  (define-fun C1_VM1 () Int
    0)
)
(objectives
 ( 17)
 ((+ 0 PriceProv1 PriceProv2 PriceProv3 PriceProv4 PriceProv5 PriceProv6) 1622)
)
(:added-eqs                   24963
 :arith-eq-adapter            37735
 :arith-bound-propagations-lp 188
 :arith-conflicts             7
 :arith-diseq                 37061
 :arith-fixed-eqs             209
 :arith-lower                 45470
 :arith-make-feasible         29224
 :arith-max-columns           350
 :arith-max-rows              20
 :arith-upper                 30731
 :binary-propagations         47219
 :bv-bit2core                 211
 :bv-dynamic-diseqs           10828
 :bv->core-eq                 507
 :conflicts                   999
 :decisions                   42127
 :del-clause                  21961
 :final-checks                21
 :max-memory                  60.02
 :maxsat-cores                3
 :memory                      60.02
 :minimized-lits              229
 :mk-bool-var                 77697
 :mk-clause                   23078
 :mk-clause-binary            6615
 :num-allocs                  307602824
 :num-checks                  26
 :pb-conflicts                10
 :pb-predicates               18
 :pb-propagations             146
 :pb-resolves                 10
 :propagations                62477
 :restarts                    5
 :rlimit-count                2543128
 :solve-eqs-elim-vars         1
 :solve-eqs-steps             10
 :time                        0.32
 :total-time                  0.33)
